NAME     NEWLP04
ROWS
  N NOBJ
  E NX01
  E NX02
  E NX03
  E NX04
  E NX05
  E NX06
  E NX07
  E NX08
  E C01A001
  E C02A001
  E C03A001
  E C04A001
  E C05A001
  E C06A001
  E C01A002
  E C02A002
  E C03A002
  E C04A002
  E C05A002
  E C06A002
  E C01A003
  E C02A003
  E C03A003
  E C04A003
  E C05A003
  E C06A003
  E C01A004
  E C02A004
  E C03A004
  E C04A004
  E C05A004
  E C06A004
  E C01A005
  E C02A005
  E C03A005
  E C04A005
  E C05A005
  E C06A005
  E C01A006
  E C02A006
  E C03A006
  E C04A006
  E C05A006
  E C06A006
  E C01A007
  E C02A007
  E C03A007
  E C04A007
  E C05A007
  E C06A007
  E C01A008
  E C02A008
  E C03A008
  E C04A008
  E C05A008
  E C06A008
  E C01A009
  E C02A009
  E C03A009
  E C04A009
  E C05A009
  E C06A009
  E C01A010
  E C02A010
  E C03A010
  E C04A010
  E C05A010
  E C06A010
  E C01A011
  E C02A011
  E C03A011
  E C04A011
  E C05A011
  E C06A011
  E C01A012
  E C02A012
  E C03A012
  E C04A012
  E C05A012
  E C06A012
  E C01A013
  E C02A013
  E C03A013
  E C04A013
  E C05A013
  E C06A013
  E C01A014
  E C02A014
  E C03A014
  E C04A014
  E C05A014
  E C06A014
  E C01A015
  E C02A015
  E C03A015
  E C04A015
  E C05A015
  E C06A015
  E C01A016
  E C02A016
  E C03A016
  E C04A016
  E C05A016
  E C06A016
COLUMNS
    X001      NX01      1.0
    X001      NX05      1.0
    X001      C01A001   -1.0
    X001      C02A001   -1.0
    X001      C03A001   -1.0
    X001      C04A001   -1.0
    X001      C05A001   -1.0
    X001      C06A001   -1.0
    X002      NX01      1.0
    X002      NX06      1.0
    X002      C01A002   -1.0
    X002      C02A002   -1.0
    X002      C03A002   -1.0
    X002      C04A002   -1.0
    X002      C05A002   -1.0
    X002      C06A002   -1.0
    X003      NX01      1.0
    X003      NX07      1.0
    X003      C01A003   -1.0
    X003      C02A003   -1.0
    X003      C03A003   -1.0
    X003      C04A003   -1.0
    X003      C05A003   -1.0
    X003      C06A003   -1.0
    X004      NX01      1.0
    X004      NX08      1.0
    X004      C01A004   -1.0
    X004      C02A004   -1.0
    X004      C03A004   -1.0
    X004      C04A004   -1.0
    X004      C05A004   -1.0
    X004      C06A004   -1.0
    X005      NX02      1.0
    X005      NX05      1.0
    X005      C01A005   -1.0
    X005      C02A005   -1.0
    X005      C03A005   -1.0
    X005      C04A005   -1.0
    X005      C05A005   -1.0
    X005      C06A005   -1.0
    X006      NX02      1.0
    X006      NX06      1.0
    X006      C01A006   -1.0
    X006      C02A006   -1.0
    X006      C03A006   -1.0
    X006      C04A006   -1.0
    X006      C05A006   -1.0
    X006      C06A006   -1.0
    X007      NX02      1.0
    X007      NX07      1.0
    X007      C01A007   -1.0
    X007      C02A007   -1.0
    X007      C03A007   -1.0
    X007      C04A007   -1.0
    X007      C05A007   -1.0
    X007      C06A007   -1.0
    X008      NX02      1.0
    X008      NX08      1.0
    X008      C01A008   -1.0
    X008      C02A008   -1.0
    X008      C03A008   -1.0
    X008      C04A008   -1.0
    X008      C05A008   -1.0
    X008      C06A008   -1.0
    X009      NX03      1.0
    X009      NX05      1.0
    X009      C01A009   -1.0
    X009      C02A009   -1.0
    X009      C03A009   -1.0
    X009      C04A009   -1.0
    X009      C05A009   -1.0
    X009      C06A009   -1.0
    X010      NX03      1.0
    X010      NX06      1.0
    X010      C01A010   -1.0
    X010      C02A010   -1.0
    X010      C03A010   -1.0
    X010      C04A010   -1.0
    X010      C05A010   -1.0
    X010      C06A010   -1.0
    X011      NX03      1.0
    X011      NX07      1.0
    X011      C01A011   -1.0
    X011      C02A011   -1.0
    X011      C03A011   -1.0
    X011      C04A011   -1.0
    X011      C05A011   -1.0
    X011      C06A011   -1.0
    X012      NX03      1.0
    X012      NX08      1.0
    X012      C01A012   -1.0
    X012      C02A012   -1.0
    X012      C03A012   -1.0
    X012      C04A012   -1.0
    X012      C05A012   -1.0
    X012      C06A012   -1.0
    X013      NX04      1.0
    X013      NX05      1.0
    X013      C01A013   -1.0
    X013      C02A013   -1.0
    X013      C03A013   -1.0
    X013      C04A013   -1.0
    X013      C05A013   -1.0
    X013      C06A013   -1.0
    X014      NX04      1.0
    X014      NX06      1.0
    X014      C01A014   -1.0
    X014      C02A014   -1.0
    X014      C03A014   -1.0
    X014      C04A014   -1.0
    X014      C05A014   -1.0
    X014      C06A014   -1.0
    X015      NX04      1.0
    X015      NX07      1.0
    X015      C01A015   -1.0
    X015      C02A015   -1.0
    X015      C03A015   -1.0
    X015      C04A015   -1.0
    X015      C05A015   -1.0
    X015      C06A015   -1.0
    X016      NX04      1.0
    X016      NX08      1.0
    X016      C01A016   -1.0
    X016      C02A016   -1.0
    X016      C03A016   -1.0
    X016      C04A016   -1.0
    X016      C05A016   -1.0
    X016      C06A016   -1.0
    Y001A001  NOBJ            10.0
    Y001A001  C01A001   1.0
    Y001A001  C04A001   1.0
    Y001A001  C01A006   1.0
    Y001A001  C04A006   1.0
    Y002A001  NOBJ            20.0
    Y002A001  C01A001   1.0
    Y002A001  C05A001   1.0
    Y002A001  C01A007   1.0
    Y002A001  C04A007   1.0
    Y003A001  NOBJ            30.0
    Y003A001  C01A001   1.0
    Y003A001  C06A001   1.0
    Y003A001  C01A008   1.0
    Y003A001  C04A008   1.0
    Y004A001  NOBJ             4.0
    Y004A001  C02A001   1.0
    Y004A001  C04A001   1.0
    Y004A001  C01A010   1.0
    Y004A001  C04A010   1.0
    Y005A001  NOBJ             8.0
    Y005A001  C02A001   1.0
    Y005A001  C05A001   1.0
    Y005A001  C01A011   1.0
    Y005A001  C04A011   1.0
    Y006A001  NOBJ            12.0
    Y006A001  C02A001   1.0
    Y006A001  C06A001   1.0
    Y006A001  C01A012   1.0
    Y006A001  C04A012   1.0
    Y007A001  NOBJ             8.0
    Y007A001  C03A001   1.0
    Y007A001  C04A001   1.0
    Y007A001  C01A014   1.0
    Y007A001  C04A014   1.0
    Y008A001  NOBJ            16.0
    Y008A001  C03A001   1.0
    Y008A001  C05A001   1.0
    Y008A001  C01A015   1.0
    Y008A001  C04A015   1.0
    Y009A001  NOBJ            24.0
    Y009A001  C03A001   1.0
    Y009A001  C06A001   1.0
    Y009A001  C01A016   1.0
    Y009A001  C04A016   1.0
    Y001A002  NOBJ            10.0
    Y001A002  C01A002   1.0
    Y001A002  C04A002   1.0
    Y001A002  C01A005   1.0
    Y001A002  C04A005   1.0
    Y002A002  NOBJ            10.0
    Y002A002  C01A002   1.0
    Y002A002  C05A002   1.0
    Y002A002  C01A007   1.0
    Y002A002  C05A007   1.0
    Y003A002  NOBJ            20.0
    Y003A002  C01A002   1.0
    Y003A002  C06A002   1.0
    Y003A002  C01A008   1.0
    Y003A002  C05A008   1.0
    Y004A002  NOBJ             4.0
    Y004A002  C02A002   1.0
    Y004A002  C04A002   1.0
    Y004A002  C01A009   1.0
    Y004A002  C04A009   1.0
    Y005A002  NOBJ             4.0
    Y005A002  C02A002   1.0
    Y005A002  C05A002   1.0
    Y005A002  C01A011   1.0
    Y005A002  C05A011   1.0
    Y006A002  NOBJ             8.0
    Y006A002  C02A002   1.0
    Y006A002  C06A002   1.0
    Y006A002  C01A012   1.0
    Y006A002  C05A012   1.0
    Y007A002  NOBJ             8.0
    Y007A002  C03A002   1.0
    Y007A002  C04A002   1.0
    Y007A002  C01A013   1.0
    Y007A002  C04A013   1.0
    Y008A002  NOBJ             8.0
    Y008A002  C03A002   1.0
    Y008A002  C05A002   1.0
    Y008A002  C01A015   1.0
    Y008A002  C05A015   1.0
    Y009A002  NOBJ            16.0
    Y009A002  C03A002   1.0
    Y009A002  C06A002   1.0
    Y009A002  C01A016   1.0
    Y009A002  C05A016   1.0
    Y001A003  NOBJ            20.0
    Y001A003  C01A003   1.0
    Y001A003  C04A003   1.0
    Y001A003  C01A005   1.0
    Y001A003  C05A005   1.0
    Y002A003  NOBJ            10.0
    Y002A003  C01A003   1.0
    Y002A003  C05A003   1.0
    Y002A003  C01A006   1.0
    Y002A003  C05A006   1.0
    Y003A003  NOBJ            10.0
    Y003A003  C01A003   1.0
    Y003A003  C06A003   1.0
    Y003A003  C01A008   1.0
    Y003A003  C06A008   1.0
    Y004A003  NOBJ             8.0
    Y004A003  C02A003   1.0
    Y004A003  C04A003   1.0
    Y004A003  C01A009   1.0
    Y004A003  C05A009   1.0
    Y005A003  NOBJ             4.0
    Y005A003  C02A003   1.0
    Y005A003  C05A003   1.0
    Y005A003  C01A010   1.0
    Y005A003  C05A010   1.0
    Y006A003  NOBJ             4.0
    Y006A003  C02A003   1.0
    Y006A003  C06A003   1.0
    Y006A003  C01A012   1.0
    Y006A003  C06A012   1.0
    Y007A003  NOBJ            16.0
    Y007A003  C03A003   1.0
    Y007A003  C04A003   1.0
    Y007A003  C01A013   1.0
    Y007A003  C05A013   1.0
    Y008A003  NOBJ             8.0
    Y008A003  C03A003   1.0
    Y008A003  C05A003   1.0
    Y008A003  C01A014   1.0
    Y008A003  C05A014   1.0
    Y009A003  NOBJ             8.0
    Y009A003  C03A003   1.0
    Y009A003  C06A003   1.0
    Y009A003  C01A016   1.0
    Y009A003  C06A016   1.0
    Y001A004  NOBJ            30.0
    Y001A004  C01A004   1.0
    Y001A004  C04A004   1.0
    Y001A004  C01A005   1.0
    Y001A004  C06A005   1.0
    Y002A004  NOBJ            20.0
    Y002A004  C01A004   1.0
    Y002A004  C05A004   1.0
    Y002A004  C01A006   1.0
    Y002A004  C06A006   1.0
    Y003A004  NOBJ            10.0
    Y003A004  C01A004   1.0
    Y003A004  C06A004   1.0
    Y003A004  C01A007   1.0
    Y003A004  C06A007   1.0
    Y004A004  NOBJ            12.0
    Y004A004  C02A004   1.0
    Y004A004  C04A004   1.0
    Y004A004  C01A009   1.0
    Y004A004  C06A009   1.0
    Y005A004  NOBJ             8.0
    Y005A004  C02A004   1.0
    Y005A004  C05A004   1.0
    Y005A004  C01A010   1.0
    Y005A004  C06A010   1.0
    Y006A004  NOBJ             4.0
    Y006A004  C02A004   1.0
    Y006A004  C06A004   1.0
    Y006A004  C01A011   1.0
    Y006A004  C06A011   1.0
    Y007A004  NOBJ            24.0
    Y007A004  C03A004   1.0
    Y007A004  C04A004   1.0
    Y007A004  C01A013   1.0
    Y007A004  C06A013   1.0
    Y008A004  NOBJ            16.0
    Y008A004  C03A004   1.0
    Y008A004  C05A004   1.0
    Y008A004  C01A014   1.0
    Y008A004  C06A014   1.0
    Y009A004  NOBJ             8.0
    Y009A004  C03A004   1.0
    Y009A004  C06A004   1.0
    Y009A004  C01A015   1.0
    Y009A004  C06A015   1.0
    Y004A005  NOBJ             6.0
    Y004A005  C02A005   1.0
    Y004A005  C04A005   1.0
    Y004A005  C02A010   1.0
    Y004A005  C04A010   1.0
    Y005A005  NOBJ            12.0
    Y005A005  C02A005   1.0
    Y005A005  C05A005   1.0
    Y005A005  C02A011   1.0
    Y005A005  C04A011   1.0
    Y006A005  NOBJ            18.0
    Y006A005  C02A005   1.0
    Y006A005  C06A005   1.0
    Y006A005  C02A012   1.0
    Y006A005  C04A012   1.0
    Y007A005  NOBJ             0.0
    Y007A005  C03A005   1.0
    Y007A005  C04A005   1.0
    Y007A005  C02A014   1.0
    Y007A005  C04A014   1.0
    Y008A005  NOBJ             0.0
    Y008A005  C03A005   1.0
    Y008A005  C05A005   1.0
    Y008A005  C02A015   1.0
    Y008A005  C04A015   1.0
    Y009A005  NOBJ             0.0
    Y009A005  C03A005   1.0
    Y009A005  C06A005   1.0
    Y009A005  C02A016   1.0
    Y009A005  C04A016   1.0
    Y004A006  NOBJ             6.0
    Y004A006  C02A006   1.0
    Y004A006  C04A006   1.0
    Y004A006  C02A009   1.0
    Y004A006  C04A009   1.0
    Y005A006  NOBJ             6.0
    Y005A006  C02A006   1.0
    Y005A006  C05A006   1.0
    Y005A006  C02A011   1.0
    Y005A006  C05A011   1.0
    Y006A006  NOBJ            12.0
    Y006A006  C02A006   1.0
    Y006A006  C06A006   1.0
    Y006A006  C02A012   1.0
    Y006A006  C05A012   1.0
    Y007A006  NOBJ             0.0
    Y007A006  C03A006   1.0
    Y007A006  C04A006   1.0
    Y007A006  C02A013   1.0
    Y007A006  C04A013   1.0
    Y008A006  NOBJ             0.0
    Y008A006  C03A006   1.0
    Y008A006  C05A006   1.0
    Y008A006  C02A015   1.0
    Y008A006  C05A015   1.0
    Y009A006  NOBJ             0.0
    Y009A006  C03A006   1.0
    Y009A006  C06A006   1.0
    Y009A006  C02A016   1.0
    Y009A006  C05A016   1.0
    Y004A007  NOBJ            12.0
    Y004A007  C02A007   1.0
    Y004A007  C04A007   1.0
    Y004A007  C02A009   1.0
    Y004A007  C05A009   1.0
    Y005A007  NOBJ             6.0
    Y005A007  C02A007   1.0
    Y005A007  C05A007   1.0
    Y005A007  C02A010   1.0
    Y005A007  C05A010   1.0
    Y006A007  NOBJ             6.0
    Y006A007  C02A007   1.0
    Y006A007  C06A007   1.0
    Y006A007  C02A012   1.0
    Y006A007  C06A012   1.0
    Y007A007  NOBJ             0.0
    Y007A007  C03A007   1.0
    Y007A007  C04A007   1.0
    Y007A007  C02A013   1.0
    Y007A007  C05A013   1.0
    Y008A007  NOBJ             0.0
    Y008A007  C03A007   1.0
    Y008A007  C05A007   1.0
    Y008A007  C02A014   1.0
    Y008A007  C05A014   1.0
    Y009A007  NOBJ             0.0
    Y009A007  C03A007   1.0
    Y009A007  C06A007   1.0
    Y009A007  C02A016   1.0
    Y009A007  C06A016   1.0
    Y004A008  NOBJ            18.0
    Y004A008  C02A008   1.0
    Y004A008  C04A008   1.0
    Y004A008  C02A009   1.0
    Y004A008  C06A009   1.0
    Y005A008  NOBJ            12.0
    Y005A008  C02A008   1.0
    Y005A008  C05A008   1.0
    Y005A008  C02A010   1.0
    Y005A008  C06A010   1.0
    Y006A008  NOBJ             6.0
    Y006A008  C02A008   1.0
    Y006A008  C06A008   1.0
    Y006A008  C02A011   1.0
    Y006A008  C06A011   1.0
    Y007A008  NOBJ             0.0
    Y007A008  C03A008   1.0
    Y007A008  C04A008   1.0
    Y007A008  C02A013   1.0
    Y007A008  C06A013   1.0
    Y008A008  NOBJ             0.0
    Y008A008  C03A008   1.0
    Y008A008  C05A008   1.0
    Y008A008  C02A014   1.0
    Y008A008  C06A014   1.0
    Y009A008  NOBJ             0.0
    Y009A008  C03A008   1.0
    Y009A008  C06A008   1.0
    Y009A008  C02A015   1.0
    Y009A008  C06A015   1.0
    Y007A009  NOBJ             0.0
    Y007A009  C03A009   1.0
    Y007A009  C04A009   1.0
    Y007A009  C03A014   1.0
    Y007A009  C04A014   1.0
    Y008A009  NOBJ             0.0
    Y008A009  C03A009   1.0
    Y008A009  C05A009   1.0
    Y008A009  C03A015   1.0
    Y008A009  C04A015   1.0
    Y009A009  NOBJ             0.0
    Y009A009  C03A009   1.0
    Y009A009  C06A009   1.0
    Y009A009  C03A016   1.0
    Y009A009  C04A016   1.0
    Y007A010  NOBJ             0.0
    Y007A010  C03A010   1.0
    Y007A010  C04A010   1.0
    Y007A010  C03A013   1.0
    Y007A010  C04A013   1.0
    Y008A010  NOBJ             0.0
    Y008A010  C03A010   1.0
    Y008A010  C05A010   1.0
    Y008A010  C03A015   1.0
    Y008A010  C05A015   1.0
    Y009A010  NOBJ             0.0
    Y009A010  C03A010   1.0
    Y009A010  C06A010   1.0
    Y009A010  C03A016   1.0
    Y009A010  C05A016   1.0
    Y007A011  NOBJ             0.0
    Y007A011  C03A011   1.0
    Y007A011  C04A011   1.0
    Y007A011  C03A013   1.0
    Y007A011  C05A013   1.0
    Y008A011  NOBJ             0.0
    Y008A011  C03A011   1.0
    Y008A011  C05A011   1.0
    Y008A011  C03A014   1.0
    Y008A011  C05A014   1.0
    Y009A011  NOBJ             0.0
    Y009A011  C03A011   1.0
    Y009A011  C06A011   1.0
    Y009A011  C03A016   1.0
    Y009A011  C06A016   1.0
    Y007A012  NOBJ             0.0
    Y007A012  C03A012   1.0
    Y007A012  C04A012   1.0
    Y007A012  C03A013   1.0
    Y007A012  C06A013   1.0
    Y008A012  NOBJ             0.0
    Y008A012  C03A012   1.0
    Y008A012  C05A012   1.0
    Y008A012  C03A014   1.0
    Y008A012  C06A014   1.0
    Y009A012  NOBJ             0.0
    Y009A012  C03A012   1.0
    Y009A012  C06A012   1.0
    Y009A012  C03A015   1.0
    Y009A012  C06A015   1.0
RHS
    RHS       NX01      1.0
    RHS       NX02      1.0
    RHS       NX03      1.0
    RHS       NX04      1.0
    RHS       NX05      1.0
    RHS       NX06      1.0
    RHS       NX07      1.0
    RHS       NX08      1.0
ENDATA
